solution status: time limit reached
objective value:                                  227
$_109_y                                            16 	(obj:0)
$_109_z                                            19 	(obj:0)
$_209_y                                            19 	(obj:0)
$_209_z                                            21 	(obj:0)
$_234_y                                            19 	(obj:0)
$_234_z                                            18 	(obj:0)
$_169_y                                            21 	(obj:0)
$_169_z                                            17 	(obj:0)
$_266_y                                            12 	(obj:0)
$_266_z                                            18 	(obj:0)
$_228_y                                            19 	(obj:0)
$_228_z                                            22 	(obj:0)
$_24_y                                             18 	(obj:0)
$_24_z                                             21 	(obj:0)
$_305_y                                            17 	(obj:0)
$_305_z                                            22 	(obj:0)
$_23_y                                             21 	(obj:0)
$_23_z                                             21 	(obj:0)
$_20_y                                             21 	(obj:0)
$_20_z                                             22 	(obj:0)
$_121_y                                            15 	(obj:0)
$_121_z                                            15 	(obj:0)
$_61_y                                             18 	(obj:0)
$_61_z                                             19 	(obj:0)
$_260_y                                            15 	(obj:0)
$_260_z                                            18 	(obj:0)
$_25_y                                             20 	(obj:0)
$_25_z                                             17 	(obj:0)
$_316_y                                            19 	(obj:0)
$_316_z                                            19 	(obj:0)
$_312_y                                            12 	(obj:0)
$_312_z                                            19 	(obj:0)
$_176_y                                            20 	(obj:0)
$_176_z                                            20 	(obj:0)
$_202_y                                            16 	(obj:0)
$_202_z                                            21 	(obj:0)
$_289_y                                            16 	(obj:0)
$_289_z                                            22 	(obj:0)
$_57_y                                             16 	(obj:0)
$_57_z                                             20 	(obj:0)
$_54_y                                             22 	(obj:0)
$_54_z                                             19 	(obj:0)
$_308_y                                            12 	(obj:0)
$_308_z                                            20 	(obj:0)
$_69_y                                             15 	(obj:0)
$_69_z                                             16 	(obj:0)
$_212_y                                            16 	(obj:0)
$_212_z                                            23 	(obj:0)
$_47_y                                             16 	(obj:0)
$_47_z                                             17 	(obj:0)
$_50_y                                             22 	(obj:0)
$_50_z                                             21 	(obj:0)
$_282_y                                            12 	(obj:0)
$_282_z                                            21 	(obj:0)
$_28_y                                             14 	(obj:0)
$_28_z                                             18 	(obj:0)
$_103_y                                            15 	(obj:0)
$_103_z                                            17 	(obj:0)
$_26_y                                             12 	(obj:0)
$_26_z                                             17 	(obj:0)
$_180_y                                            21 	(obj:0)
$_180_z                                            18 	(obj:0)
$_218_y                                            15 	(obj:0)
$_218_z                                            21 	(obj:0)
$_244_y                                            19 	(obj:0)
$_244_z                                            20 	(obj:0)
$_177_y                                            20 	(obj:0)
$_177_z                                            22 	(obj:0)
$_140_y                                            15 	(obj:0)
$_140_z                                            19 	(obj:0)
$_193_y                                            20 	(obj:0)
$_193_z                                            23 	(obj:0)
$_27_y                                             14 	(obj:0)
$_27_z                                             16 	(obj:0)
$_225_y                                            19 	(obj:0)
$_225_z                                            23 	(obj:0)
$_68_y                                             16 	(obj:0)
$_68_z                                             16 	(obj:0)
$_21_y                                             13 	(obj:0)
$_21_z                                             15 	(obj:0)
$_79_y                                             15 	(obj:0)
$_79_z                                             20 	(obj:0)
$_126_y                                            17 	(obj:0)
$_126_z                                            23 	(obj:0)
$_17_y                                             13 	(obj:0)
$_17_z                                             16 	(obj:0)
$_83_y                                             14 	(obj:0)
$_83_z                                             19 	(obj:0)
$_105_y                                            17 	(obj:0)
$_105_z                                            20 	(obj:0)
$_298_y                                            12 	(obj:0)
$_298_z                                            22 	(obj:0)
$_273_y                                            16 	(obj:0)
$_273_z                                            24 	(obj:0)
$_19_y                                             19 	(obj:0)
$_19_z                                             24 	(obj:0)
$_241_y                                            21 	(obj:0)
$_241_z                                            20 	(obj:0)
$_130_y                                            17 	(obj:0)
$_130_z                                            19 	(obj:0)
$_22_y                                             20 	(obj:0)
$_22_z                                             18 	(obj:0)
$_276_y                                            13 	(obj:0)
$_276_z                                            19 	(obj:0)
$_250_y                                            16 	(obj:0)
$_250_z                                            18 	(obj:0)
$_257_y                                            17 	(obj:0)
$_257_z                                            21 	(obj:0)
$_125_y                                            12 	(obj:0)
$_125_z                                            23 	(obj:0)
$_186_y                                            20 	(obj:0)
$_186_z                                            19 	(obj:0)
$_46_y                                             18 	(obj:0)
$_46_z                                             20 	(obj:0)
$_72_y                                             13 	(obj:0)
$_72_z                                             22 	(obj:0)
$_292_y                                            14 	(obj:0)
$_292_z                                            21 	(obj:0)
$_196_y                                            20 	(obj:0)
$_196_z                                            21 	(obj:0)
$_104_y                                            21 	(obj:0)
$_104_z                                            19 	(obj:0)
$_76_y                                             18 	(obj:0)
$_76_z                                             22 	(obj:0)
x125                                                2 	(obj:1)
x126                                                2 	(obj:1)
x127                                                1 	(obj:1)
x129                                                2 	(obj:1)
x130                                                2 	(obj:1)
x131                                                2 	(obj:1)
x132                                                1 	(obj:1)
x133                                                2 	(obj:1)
x134                                                2 	(obj:1)
x135                                                2 	(obj:1)
x136                                                2 	(obj:1)
x137                                                2 	(obj:1)
x138                                                1 	(obj:1)
x139                                                2 	(obj:1)
x140                                                1 	(obj:1)
x141                                                2 	(obj:1)
x142                                                2 	(obj:1)
x143                                                1 	(obj:1)
x144                                                2 	(obj:1)
x145                                                2 	(obj:1)
x146                                                2 	(obj:1)
x147                                                2 	(obj:1)
x148                                                2 	(obj:1)
x149                                                2 	(obj:1)
x150                                                2 	(obj:1)
x151                                                1 	(obj:1)
x152                                                2 	(obj:1)
x153                                                2 	(obj:1)
x154                                                2 	(obj:1)
x155                                                1 	(obj:1)
x158                                                2 	(obj:1)
x159                                                2 	(obj:1)
x160                                                2 	(obj:1)
x161                                                2 	(obj:1)
x162                                                1 	(obj:1)
x164                                                2 	(obj:1)
x165                                                1 	(obj:1)
x166                                                1 	(obj:1)
x168                                                1 	(obj:1)
x169                                                2 	(obj:1)
x170                                                2 	(obj:1)
x172                                                2 	(obj:1)
x173                                                2 	(obj:1)
x175                                                2 	(obj:1)
x176                                                2 	(obj:1)
x177                                                2 	(obj:1)
x178                                                2 	(obj:1)
x179                                                2 	(obj:1)
x180                                                2 	(obj:1)
x181                                                2 	(obj:1)
x183                                                1 	(obj:1)
x185                                                2 	(obj:1)
x186                                                1 	(obj:1)
x191                                                2 	(obj:1)
x192                                                2 	(obj:1)
x193                                                2 	(obj:1)
x194                                                2 	(obj:1)
x195                                                2 	(obj:1)
x197                                                2 	(obj:1)
x198                                                2 	(obj:1)
x199                                                1 	(obj:1)
x201                                                1 	(obj:1)
x202                                                2 	(obj:1)
x203                                                2 	(obj:1)
x204                                                1 	(obj:1)
x205                                                1 	(obj:1)
x208                                                2 	(obj:1)
x209                                                2 	(obj:1)
x211                                                2 	(obj:1)
x212                                                2 	(obj:1)
x215                                                2 	(obj:1)
x219                                                1 	(obj:1)
x220                                                1 	(obj:1)
x221                                                1 	(obj:1)
x226                                                1 	(obj:1)
x230                                                2 	(obj:1)
x232                                                2 	(obj:1)
x233                                                1 	(obj:1)
x235                                                2 	(obj:1)
x238                                                1 	(obj:1)
x239                                                2 	(obj:1)
x240                                                2 	(obj:1)
x241                                                2 	(obj:1)
x243                                                2 	(obj:1)
x245                                                2 	(obj:1)
x246                                                2 	(obj:1)
x247                                                2 	(obj:1)
x248                                                2 	(obj:1)
x249                                                2 	(obj:1)
x250                                                2 	(obj:1)
x251                                                2 	(obj:1)
x252                                                1 	(obj:1)
x253                                                2 	(obj:1)
x254                                                2 	(obj:1)
x255                                                2 	(obj:1)
x256                                                2 	(obj:1)
x257                                                2 	(obj:1)
x258                                                1 	(obj:1)
x259                                                2 	(obj:1)
x260                                                1 	(obj:1)
x261                                                2 	(obj:1)
x263                                                2 	(obj:1)
x264                                                2 	(obj:1)
x265                                                2 	(obj:1)
x266                                                1 	(obj:1)
x268                                                2 	(obj:1)
x271                                                1 	(obj:1)
x272                                                2 	(obj:1)
x273                                                2 	(obj:1)
x274                                                2 	(obj:1)
x275                                                1 	(obj:1)
x276                                                1 	(obj:1)
x277                                                1 	(obj:1)
x278                                                2 	(obj:1)
x281                                                2 	(obj:1)
x283                                                1 	(obj:1)
x284                                                2 	(obj:1)
x285                                                1 	(obj:1)
x286                                                1 	(obj:1)
x287                                                2 	(obj:1)
x289                                                1 	(obj:1)
x290                                                2 	(obj:1)
x291                                                2 	(obj:1)
x292                                                2 	(obj:1)
x297                                                2 	(obj:1)
x298                                                2 	(obj:1)
x299                                                2 	(obj:1)
x300                                                2 	(obj:1)
x301                                                2 	(obj:1)
x303                                                2 	(obj:1)
x304                                                2 	(obj:1)
